(set-logic QF_NRA)
(set-info :source |
From termination analysis of term rewriting.

Submitted by Harald Roman Zankl <Harald.Zankl@uibk.ac.at>

|)
(set-info :smt-lib-version 2.0)
(set-info :category "industrial")
(set-info :status unknown)
(declare-fun x6 () Real)
(declare-fun x23 () Real)
(declare-fun x40 () Real)
(declare-fun x13 () Real)
(declare-fun x30 () Real)
(declare-fun x3 () Real)
(declare-fun x20 () Real)
(declare-fun x37 () Real)
(declare-fun x10 () Real)
(declare-fun x27 () Real)
(declare-fun x44 () Real)
(declare-fun x0 () Real)
(declare-fun x17 () Real)
(declare-fun x34 () Real)
(declare-fun x7 () Real)
(declare-fun x24 () Real)
(declare-fun x41 () Real)
(declare-fun x14 () Real)
(declare-fun x31 () Real)
(declare-fun x4 () Real)
(declare-fun x21 () Real)
(declare-fun x38 () Real)
(declare-fun x11 () Real)
(declare-fun x28 () Real)
(declare-fun x45 () Real)
(declare-fun x1 () Real)
(declare-fun x18 () Real)
(declare-fun x35 () Real)
(declare-fun x8 () Real)
(declare-fun x25 () Real)
(declare-fun x42 () Real)
(declare-fun x15 () Real)
(declare-fun x32 () Real)
(declare-fun x5 () Real)
(declare-fun x22 () Real)
(declare-fun x39 () Real)
(declare-fun x12 () Real)
(declare-fun x29 () Real)
(declare-fun x46 () Real)
(declare-fun x2 () Real)
(declare-fun x19 () Real)
(declare-fun x36 () Real)
(declare-fun x9 () Real)
(declare-fun x26 () Real)
(declare-fun x43 () Real)
(declare-fun x16 () Real)
(declare-fun x33 () Real)
(assert (>= x6 0))
(assert (>= x23 0))
(assert (>= x40 0))
(assert (>= x13 0))
(assert (>= x30 0))
(assert (>= x3 0))
(assert (>= x20 0))
(assert (>= x37 0))
(assert (>= x10 0))
(assert (>= x27 0))
(assert (>= x44 0))
(assert (>= x0 0))
(assert (>= x17 0))
(assert (>= x34 0))
(assert (>= x7 0))
(assert (>= x24 0))
(assert (>= x41 0))
(assert (>= x14 0))
(assert (>= x31 0))
(assert (>= x4 0))
(assert (>= x21 0))
(assert (>= x38 0))
(assert (>= x11 0))
(assert (>= x28 0))
(assert (>= x45 0))
(assert (>= x1 0))
(assert (>= x18 0))
(assert (>= x35 0))
(assert (>= x8 0))
(assert (>= x25 0))
(assert (>= x42 0))
(assert (>= x15 0))
(assert (>= x32 0))
(assert (>= x5 0))
(assert (>= x22 0))
(assert (>= x39 0))
(assert (>= x12 0))
(assert (>= x29 0))
(assert (>= x46 0))
(assert (>= x2 0))
(assert (>= x19 0))
(assert (>= x36 0))
(assert (>= x9 0))
(assert (>= x26 0))
(assert (>= x43 0))
(assert (>= x16 0))
(assert (>= x33 0))
(assert (let ((?v_0 (+ x0 (+ (+ (* x1 x4) (* x2 x5)) (* x3 x6)))) (?v_2 (+ (+ (* x1 x7) (* x2 x10)) (* x3 x13))) (?v_3 (+ (+ (* x1 x8) (* x2 x11)) (* x3 x14))) (?v_4 (+ (+ (* x1 x9) (* x2 x12)) (* x3 x15))) (?v_1 (+ x0 (+ (+ (* x1 x20) (* x2 x21)) (* x3 x22))))) (let ((?v_9 (and (and (and (> ?v_0 x16) (>= ?v_0 x16)) (and (and (>= ?v_2 x17) (>= ?v_3 x18)) (>= ?v_4 x19))) (and (and (> ?v_0 ?v_1) (>= ?v_0 ?v_1)) (and (and (>= ?v_2 (+ (+ (* x1 x23) (* x2 x26)) (* x3 x29))) (>= ?v_3 (+ (+ (* x1 x24) (* x2 x27)) (* x3 x30)))) (>= ?v_4 (+ (+ (* x1 x25) (* x2 x28)) (* x3 x31))))))) (?v_6 (+ x32 (+ (+ (* x35 x20) (* x36 x21)) (* x37 x22)))) (?v_5 (+ x32 (+ (+ (* x35 x4) (* x36 x5)) (* x37 x6)))) (?v_7 (+ x33 (+ (+ (* x38 x20) (* x39 x21)) (* x40 x22)))) (?v_8 (+ x34 (+ (+ (* x41 x20) (* x42 x21)) (* x43 x22))))) (and (and (and (and ?v_9 (and (and (> ?v_5 ?v_6) (and (and (>= ?v_5 ?v_6) (>= (+ x33 (+ (+ (* x38 x4) (* x39 x5)) (* x40 x6))) ?v_7)) (>= (+ x34 (+ (+ (* x41 x4) (* x42 x5)) (* x43 x6))) ?v_8))) (and (and (and (and (and (and (and (and (>= (+ (+ (* x35 x7) (* x36 x10)) (* x37 x13)) (+ (+ (* x35 x23) (* x36 x26)) (* x37 x29))) (>= (+ (+ (* x35 x8) (* x36 x11)) (* x37 x14)) (+ (+ (* x35 x24) (* x36 x27)) (* x37 x30)))) (>= (+ (+ (* x35 x9) (* x36 x12)) (* x37 x15)) (+ (+ (* x35 x25) (* x36 x28)) (* x37 x31)))) (>= (+ (+ (* x38 x7) (* x39 x10)) (* x40 x13)) (+ (+ (* x38 x23) (* x39 x26)) (* x40 x29)))) (>= (+ (+ (* x38 x8) (* x39 x11)) (* x40 x14)) (+ (+ (* x38 x24) (* x39 x27)) (* x40 x30)))) (>= (+ (+ (* x38 x9) (* x39 x12)) (* x40 x15)) (+ (+ (* x38 x25) (* x39 x28)) (* x40 x31)))) (>= (+ (+ (* x41 x7) (* x42 x10)) (* x43 x13)) (+ (+ (* x41 x23) (* x42 x26)) (* x43 x29)))) (>= (+ (+ (* x41 x8) (* x42 x11)) (* x43 x14)) (+ (+ (* x41 x24) (* x42 x27)) (* x43 x30)))) (>= (+ (+ (* x41 x9) (* x42 x12)) (* x43 x15)) (+ (+ (* x41 x25) (* x42 x28)) (* x43 x31)))))) (and (> ?v_6 x44) (and (and (>= ?v_6 x44) (>= ?v_7 x45)) (>= ?v_8 x46)))) (and (and (> x20 x4) (and (and (>= x20 x4) (>= x21 x5)) (>= x22 x6))) (and (and (and (and (and (and (and (and (>= x23 x7) (>= x24 x8)) (>= x25 x9)) (>= x26 x10)) (>= x27 x11)) (>= x28 x12)) (>= x29 x13)) (>= x30 x14)) (>= x31 x15)))) ?v_9))))
(check-sat)
(exit)
